p wcnf 139 278 279 
1 -41 -138 0 
1 -30 85 0 
1 116 19 0 
1 38 91 0 
1 -115 29 0 
1 -17 -108 0 
1 -73 -65 0 
1 45 -83 0 
1 30 -132 0 
1 127 7 0 
1 40 27 0 
1 -61 -120 0 
1 -89 88 0 
1 71 97 0 
1 -131 25 0 
1 -7 -22 0 
1 121 -53 0 
1 124 46 0 
1 -114 69 0 
1 24 -51 0 
1 -123 16 0 
1 -67 -7 0 
1 130 1 0 
1 131 59 0 
1 27 -122 0 
1 101 -18 0 
1 134 70 0 
1 20 86 0 
1 -40 14 0 
1 54 86 0 
1 12 55 0 
1 35 -116 0 
1 74 87 0 
1 122 -53 0 
1 74 -126 0 
1 24 17 0 
1 41 -32 0 
1 -73 76 0 
1 128 60 0 
1 -1 -98 0 
1 -1 130 0 
1 -4 19 0 
1 132 79 0 
1 -49 64 0 
1 95 70 0 
1 -110 55 0 
1 2 -118 0 
1 -66 73 0 
1 -60 74 0 
1 -115 43 0 
1 132 112 0 
1 25 -28 0 
1 -125 -13 0 
1 -136 43 0 
1 -85 64 0 
1 59 97 0 
1 -129 55 0 
1 21 -19 0 
1 64 -119 0 
1 2 64 0 
1 25 10 0 
1 6 35 0 
1 61 20 0 
1 8 31 0 
1 99 50 0 
1 -10 -116 0 
1 -47 92 0 
1 -67 47 0 
1 -14 17 0 
1 -4 18 0 
1 -8 91 0 
1 -64 81 0 
1 -55 83 0 
1 -104 44 0 
1 -88 115 0 
1 -36 -71 0 
1 10 105 0 
1 75 9 0 
1 -100 22 0 
1 -103 92 0 
1 81 -53 0 
1 75 21 0 
1 -72 125 0 
1 136 63 0 
1 -136 -125 0 
1 -97 -111 0 
1 -114 -110 0 
1 -57 -118 0 
1 59 121 0 
1 21 71 0 
1 61 68 0 
1 94 -39 0 
1 65 36 0 
1 65 6 0 
1 -95 27 0 
1 107 -22 0 
1 -5 -109 0 
1 43 -91 0 
1 3 94 0 
1 108 88 0 
1 -97 47 0 
1 128 -63 0 
1 34 4 0 
1 117 -22 0 
1 -57 -45 0 
1 102 127 0 
1 -61 -122 0 
1 17 105 0 
1 -64 128 0 
1 64 -117 0 
1 44 2 0 
1 -13 50 0 
1 -89 124 0 
1 -112 28 0 
1 82 13 0 
1 -67 -132 0 
1 -96 -37 0 
1 -43 134 0 
1 33 -48 0 
1 56 -28 0 
1 -123 73 0 
1 86 -47 0 
1 89 129 0 
1 -53 -45 0 
1 -119 63 0 
1 5 38 0 
1 36 108 0 
1 43 -51 0 
1 121 27 0 
1 115 37 0 
1 49 -40 0 
1 -77 -5 0 
1 48 -66 0 
1 47 82 0 
1 135 123 0 
1 -26 -130 0 
1 -53 59 0 
1 42 75 0 
1 -10 77 0 
1 113 -72 0 
1 -105 -37 0 
1 -116 -118 0 
1 107 -27 0 
1 91 -44 0 
1 3 -80 0 
1 65 -110 0 
1 46 -84 0 
1 139 -23 0 
1 -112 90 0 
1 -103 -112 0 
1 62 -83 0 
1 -52 -137 0 
1 11 122 0 
1 58 132 0 
1 -10 -79 0 
1 -64 71 0 
1 96 -83 0 
1 -40 -122 0 
1 22 36 0 
1 -110 12 0 
1 36 13 0 
1 -121 -112 0 
1 -23 -71 0 
1 -126 73 0 
1 -43 -105 0 
1 -9 67 0 
1 128 -38 0 
1 29 -42 0 
1 -22 -56 0 
1 126 130 0 
1 12 16 0 
1 -76 49 0 
1 22 43 0 
1 -81 78 0 
1 46 42 0 
1 6 -133 0 
1 58 -19 0 
1 -129 124 0 
1 18 -73 0 
1 129 -89 0 
1 -135 -98 0 
1 -31 106 0 
1 89 -31 0 
1 -107 66 0 
1 -13 -134 0 
1 134 -108 0 
1 23 61 0 
1 -136 122 0 
1 -14 108 0 
1 64 14 0 
1 -1 135 0 
1 -29 -67 0 
1 -54 -62 0 
1 -109 19 0 
1 35 19 0 
1 69 85 0 
1 -44 -65 0 
1 -137 83 0 
1 -57 -83 0 
1 -134 122 0 
1 -40 -59 0 
1 -99 -81 0 
1 87 -128 0 
1 126 -40 0 
1 -28 -52 0 
1 44 82 0 
1 69 -38 0 
1 87 106 0 
1 71 137 0 
1 89 -134 0 
1 -91 138 0 
1 -34 -79 0 
1 70 76 0 
1 -66 67 0 
1 -8 11 0 
1 84 105 0 
1 78 -48 0 
1 74 13 0 
1 -11 9 0 
1 -49 100 0 
1 45 -90 0 
1 -121 52 0 
1 -117 95 0 
1 -56 10 0 
1 -131 -35 0 
1 105 110 0 
1 -34 -22 0 
1 139 106 0 
1 -70 -138 0 
1 48 -126 0 
1 -43 -137 0 
1 41 54 0 
1 104 -20 0 
1 -14 127 0 
1 -78 50 0 
1 -36 9 0 
1 -86 119 0 
1 -104 -52 0 
1 55 -40 0 
1 9 88 0 
1 107 -27 0 
1 61 -57 0 
1 12 -28 0 
1 14 106 0 
1 -58 61 0 
1 72 46 0 
1 -63 26 0 
1 -50 79 0 
1 -136 -78 0 
1 -30 -100 0 
1 -110 111 0 
1 138 -34 0 
1 -103 -49 0 
1 42 69 0 
1 28 -103 0 
1 -55 -36 0 
1 -44 -49 0 
1 63 -89 0 
1 -97 -111 0 
1 134 -72 0 
1 -105 124 0 
1 -79 -126 0 
1 -31 58 0 
1 -31 47 0 
1 32 49 0 
1 116 -134 0 
1 -123 37 0 
1 2 10 0 
1 115 17 0 
1 134 30 0 
1 -113 -19 0 
1 1 -56 0 
1 -108 104 0 
1 71 66 0 
1 70 -91 0 
1 -18 122 0 
1 19 65 0 
1 11 70 0 
